words_hard_train/7720.qaiger
aag 91 16 0 1 75
2
4
12
14
20
24
28
32
36
50
62
74
84
92
102
122
182
6 2 4
8 3 5
10 7 9
16 12 15
18 17 15
22 18 21
26 22 25
30 26 29
34 30 33
38 34 37
40 11 39
42 10 38
44 41 43
46 35 36
48 47 39
52 48 51
54 49 50
56 53 55
58 31 32
60 59 35
64 61 62
66 56 64
68 67 55
70 27 28
72 71 31
76 72 75
78 60 63
80 77 79
82 80 56
86 84 13
88 13 14
90 89 17
94 90 92
96 87 95
98 19 20
100 99 23
104 100 103
106 101 102
108 105 107
110 91 93
112 108 111
114 97 112
116 115 107
118 23 24
120 119 27
124 120 123
126 121 122
128 125 127
130 117 128
132 73 74
134 133 127
136 131 134
138 82 137
140 68 139
142 44 141
144 45 140
146 143 145
148 85 12
150 149 96
152 150 112
154 76 127
156 152 155
158 116 129
160 156 159
162 132 126
164 79 65
166 163 165
168 160 167
170 168 131
172 80 135
174 173 56
176 175 65
178 67 177
180 170 178
182 146 181
i0 2 y1[7]
i1 1 x1[7]
i2 2 y1[0]
i3 2 y1[1]
i4 2 y1[2]
i5 2 y1[3]
i6 2 y1[4]
i7 2 y1[5]
i8 2 y1[6]
i9 1 x1[6]
i10 1 x1[5]
i11 1 x1[4]
i12 1 x1[0]
i13 1 x1[1]
i14 1 x1[2]
i15 1 x1[3]
o0 bv[0]
c
simplified
  >=
    invert
      1
    add
      subtract
        2 y1
        1
      1 x1
