words_hard_train/7720.qaiger.qdimacs
p cnf 91 226
a 2 37 42 46 51 25 61 31 0
e 1 3 4 5 6 7 8 9 10 11 12 13 14 15 16 17 18 19 20 21 22 23 24 26 27 28 29 30 32 33 34 35 36 38 39 40 41 43 44 45 47 48 49 50 52 53 54 55 56 57 58 59 60 62 63 64 65 66 67 68 69 70 71 72 73 74 75 76 77 78 79 80 81 82 83 84 85 86 87 88 89 90 91 0
-1 -2 3 0
1 -3 0
2 -3 0
1 2 4 0
-1 -4 0
-2 -4 0
3 4 5 0
-3 -5 0
-4 -5 0
-6 7 8 0
6 -8 0
-7 -8 0
8 7 9 0
-8 -9 0
-7 -9 0
-9 10 11 0
9 -11 0
-10 -11 0
-11 12 13 0
11 -13 0
-12 -13 0
-13 14 15 0
13 -15 0
-14 -15 0
-15 16 17 0
15 -17 0
-16 -17 0
-17 18 19 0
17 -19 0
-18 -19 0
5 19 20 0
-5 -20 0
-19 -20 0
-5 -19 21 0
5 -21 0
19 -21 0
20 21 22 0
-20 -22 0
-21 -22 0
17 -18 23 0
-17 -23 0
18 -23 0
23 19 24 0
-23 -24 0
-19 -24 0
-24 25 26 0
24 -26 0
-25 -26 0
24 -25 27 0
-24 -27 0
25 -27 0
26 27 28 0
-26 -28 0
-27 -28 0
15 -16 29 0
-15 -29 0
16 -29 0
29 17 30 0
-29 -30 0
-17 -30 0
30 -31 32 0
-30 -32 0
31 -32 0
-28 -32 33 0
28 -33 0
32 -33 0
33 27 34 0
-33 -34 0
-27 -34 0
13 -14 35 0
-13 -35 0
14 -35 0
35 15 36 0
-35 -36 0
-15 -36 0
-36 37 38 0
36 -38 0
-37 -38 0
-30 31 39 0
30 -39 0
-31 -39 0
38 39 40 0
-38 -40 0
-39 -40 0
-40 -28 41 0
40 -41 0
28 -41 0
-42 6 43 0
42 -43 0
-6 -43 0
6 -7 44 0
-6 -44 0
7 -44 0
44 8 45 0
-44 -45 0
-8 -45 0
-45 -46 47 0
45 -47 0
46 -47 0
43 47 48 0
-43 -48 0
-47 -48 0
9 -10 49 0
-9 -49 0
10 -49 0
49 11 50 0
-49 -50 0
-11 -50 0
-50 51 52 0
50 -52 0
-51 -52 0
50 -51 53 0
-50 -53 0
51 -53 0
52 53 54 0
-52 -54 0
-53 -54 0
45 46 55 0
-45 -55 0
-46 -55 0
-54 55 56 0
54 -56 0
-55 -56 0
48 -56 57 0
-48 -57 0
56 -57 0
57 53 58 0
-57 -58 0
-53 -58 0
11 -12 59 0
-11 -59 0
12 -59 0
59 13 60 0
-59 -60 0
-13 -60 0
-60 61 62 0
60 -62 0
-61 -62 0
60 -61 63 0
-60 -63 0
61 -63 0
62 63 64 0
-62 -64 0
-63 -64 0
58 -64 65 0
-58 -65 0
64 -65 0
36 -37 66 0
-36 -66 0
37 -66 0
66 63 67 0
-66 -67 0
-63 -67 0
65 -67 68 0
-65 -68 0
67 -68 0
-41 68 69 0
41 -69 0
-68 -69 0
-34 69 70 0
34 -70 0
-69 -70 0
-22 70 71 0
22 -71 0
-70 -71 0
22 -70 72 0
-22 -72 0
70 -72 0
71 72 73 0
-71 -73 0
-72 -73 0
42 -6 74 0
-42 -74 0
6 -74 0
74 -48 75 0
-74 -75 0
48 -75 0
-75 -56 76 0
75 -76 0
56 -76 0
-38 63 77 0
38 -77 0
-63 -77 0
-76 77 78 0
76 -78 0
-77 -78 0
-58 64 79 0
58 -79 0
-64 -79 0
-78 79 80 0
78 -80 0
-79 -80 0
-66 -63 81 0
66 -81 0
63 -81 0
39 32 82 0
-39 -82 0
-32 -82 0
81 82 83 0
-81 -83 0
-82 -83 0
-80 83 84 0
80 -84 0
-83 -84 0
-84 65 85 0
84 -85 0
-65 -85 0
-40 67 86 0
40 -86 0
-67 -86 0
86 -28 87 0
-86 -87 0
28 -87 0
87 32 88 0
-87 -88 0
-32 -88 0
33 88 89 0
-33 -89 0
-88 -89 0
-85 -89 90 0
85 -90 0
89 -90 0
-73 90 91 0
73 -91 0
-90 -91 0
91 0
